122     4       
19      16      19      17      
0       0       0       0       0       3       2       3       4       
5       0       0       10      0       3       9       15      68      
6       6       0       0       0       3       14      16      37      
5       0       0       2       0       3       5       6       13      
9       4       0       0       0       3       8       11      28      
2       0       6       0       0       3       7       22      38      
2       0       0       0       5       3       9       18      27      
7       0       0       9       0       3       10      12      89      
1       0       0       1       0       3       10      17      57      
6       0       0       5       0       3       23      39      46      
10      0       2       0       0       2       31      65      
9       0       9       0       0       2       51      106     
1       8       0       0       0       3       41      56      85      
10      0       0       7       0       3       20      29      93      
2       0       0       0       6       3       25      34      45      
4       8       0       0       0       3       22      30      52      
4       0       0       0       6       2       58      74      
9       0       0       1       0       3       19      33      64      
2       9       0       0       0       3       21      58      74      
2       0       0       0       9       2       21      32      
2       0       6       0       0       3       30      40      43      
10      5       0       0       0       3       26      35      42      
5       4       0       0       0       3       24      29      121     
8       5       0       0       0       3       55      60      69      
9       0       0       0       9       3       31      62      70      
10      7       0       0       0       3       44      51      70      
1       0       0       0       8       3       28      33      65      
7       0       5       0       0       3       52      70      82      
6       0       0       2       0       1       78      
8       9       0       0       0       2       36      103     
8       8       0       0       0       1       120     
4       0       6       0       0       1       57      
7       0       0       0       9       3       36      44      101     
8       0       0       6       0       3       51      55      105     
5       0       1       0       0       2       45      47      
2       0       3       0       0       3       83      91      111     
2       10      0       0       0       2       67      100     
6       0       0       0       9       2       53      78      
5       0       4       0       0       3       40      42      98      
9       0       0       0       10      2       44      77      
5       0       0       0       8       1       48      
1       8       0       0       0       3       45      47      59      
5       9       0       0       0       3       46      71      92      
3       7       0       0       0       2       83      109     
9       0       0       10      0       2       54      101     
2       0       0       0       10      3       49      50      76      
10      0       0       10      0       3       72      75      92      
1       0       9       0       0       3       50      69      76      
5       0       2       0       0       3       63      75      82      
4       0       0       8       0       1       79      
5       0       0       8       0       1       97      
2       0       4       0       0       3       55      61      102     
4       0       4       0       0       3       59      66      85      
1       0       0       8       0       3       60      61      84      
4       8       0       0       0       1       113     
3       8       0       0       0       3       72      73      104     
7       0       0       1       0       3       79      100     108     
2       10      0       0       0       2       63      66      
3       0       0       3       0       2       61      82      
9       7       0       0       0       2       63      73      
2       0       0       4       0       3       64      87      116     
6       4       0       0       0       3       71      75      103     
5       0       1       0       0       1       65      
3       0       0       8       0       3       69      71      110     
6       0       0       7       0       1       86      
10      7       0       0       0       3       80      89      99      
5       0       2       0       0       2       79      81      
5       0       0       6       0       2       84      90      
5       8       0       0       0       1       92      
3       5       0       0       0       3       76      87      88      
5       0       0       3       0       2       72      88      
9       0       6       0       0       2       108     118     
4       0       0       4       0       3       77      80      99      
2       0       1       0       0       3       93      104     108     
3       0       5       0       0       2       78      113     
1       0       0       2       0       3       81      83      90      
7       0       1       0       0       1       110     
2       9       0       0       0       3       80      87      119     
2       0       0       6       0       2       84      101     
6       0       0       0       6       1       81      
10      0       0       4       0       2       95      106     
3       0       0       0       4       3       90      95      96      
3       0       0       9       0       1       97      
5       0       0       8       0       1       99      
7       0       0       0       8       3       91      97      98      
7       0       0       0       6       1       88      
5       4       0       0       0       1       100     
5       0       0       7       0       2       94      107     
9       7       0       0       0       2       93      94      
6       10      0       0       0       3       91      104     107     
3       0       0       6       0       1       110     
8       9       0       0       0       2       94      112     
4       1       0       0       0       3       95      96      98      
10      0       0       0       2       1       113     
5       0       0       0       2       2       102     115     
9       4       0       0       0       2       103     105     
6       0       0       9       0       1       114     
9       0       0       0       7       1       102     
4       0       0       0       8       1       107     
3       0       0       0       3       1       115     
4       0       0       1       0       1       109     
1       7       0       0       0       1       117     
1       8       0       0       0       1       116     
9       0       3       0       0       3       105     106     118     
8       0       0       0       9       1       121     
2       0       0       1       0       1       116     
3       4       0       0       0       2       109     119     
6       0       0       5       0       3       111     119     121     
1       4       0       0       0       2       111     112     
3       0       10      0       0       1       112     
9       0       0       3       0       1       115     
6       0       0       0       7       1       114     
10      0       0       0       6       1       114     
8       0       0       8       0       1       118     
10      0       0       0       7       1       117     
4       0       1       0       0       1       117     
9       0       0       6       0       1       120     
2       0       0       0       1       1       120     
2       0       0       6       0       1       122     
8       0       0       0       2       1       122     
5       0       0       0       3       1       122     
0       0       0       0       0       0       